language ESSENCE' 1.0
$ loaded file: carseqdata/csplib-instance-62
letting numcars=200
letting numclasses=30
letting numoptions=5
letting optMax=[1, 2, 1, 2, 1]
letting windowSize=[2, 3, 3, 5, 5]
letting numberPerClass=[31, 14, 1, 4, 1, 1, 2, 2, 5, 1, 20, 3, 1, 1, 5, 3, 3, 1, 5, 1, 11, 6, 14, 1, 17, 1, 7, 23, 5, 10]
letting optionsRequired=[[0, 1, 0, 0, 0], [0, 1, 1, 0, 0], [0, 1, 1, 1, 0], [1, 0, 1, 1, 0], [1, 1, 1, 0, 1], [1, 0, 0, 1, 1], [1, 0, 1, 0, 0], [1, 1, 1, 1, 0], [0, 0, 0, 0, 1], [0, 0, 1, 1, 1], [1, 1, 0, 0, 0], [0, 0, 1, 0, 1], [0, 1, 1, 1, 1], [1, 1, 0, 1, 1], [1, 1, 0, 0, 1], [1, 1, 1, 0, 0], [0, 1, 0, 1, 1], [1, 1, 1, 1, 1], [1, 0, 0, 0, 1], [1, 0, 1, 0, 0], [0, 0, 1, 0, 0], [1, 1, 0, 1, 0], [0, 0, 0, 1, 0], [0, 0, 0, 0, 0], [0, 0, 0, 0, 0], [0, 0, 0, 0, 0], [0, 0, 0, 0, 0], [1, 0, 0, 0, 0], [0, 0, 0, 0, 0], [0, 0, 0, 0, 0]]
